\ LP format - for model browsing. Use MPS format to capture full model detail.
Minimize
  C54(1)
Subject To
 c0: B0(9) + B1(9) = 1
 c1: B2(9) + B3(10) = 1
 c2: B4(8) + B5(7) = 1
 c3: B6(9) + B7(7) = 1
 c4: B8(8) + B9(11) = 1
 c5: B10(7) + B11(6) = 1
 c6: B12(8) + B13(10) = 1
 c7: B14(9) + B15(11) = 1
 c8: B16(8) + B17(7) = 1
 c9: - 1e+09 B0(9) + C36(9) <= 0
 c10: - 1e+09 B1(9) + C37(9) <= 0
 c11: - 1e+09 B2(9) + C38(11) <= 0
 c12: - 1e+09 B3(10) + C39(11) <= 0
 c13: - 1e+09 B4(8) + C40(9) <= 0
 c14: - 1e+09 B5(7) + C41(9) <= 0
 c15: - 1e+09 B6(9) + C42(9) <= 0
 c16: - 1e+09 B7(7) + C43(7) <= 0
 c17: - 1e+09 B8(8) + C44(9) <= 0
 c18: - 1e+09 B9(11) + C45(13) <= 0
 c19: - 1e+09 B10(7) + C46(9) <= 0
 c20: - 1e+09 B11(6) + C47(7) <= 0
 c21: - 1e+09 B12(8) + C48(8) <= 0
 c22: - 1e+09 B13(10) + C49(10) <= 0
 c23: - 1e+09 B14(9) + C50(10) <= 0
 c24: - 1e+09 B15(11) + C51(12) <= 0
 c25: - 1e+09 B16(8) + C52(9) <= 0
 c26: - 1e+09 B17(7) + C53(9) <= 0
 c27: - 117 B0(9) - 125 B1(9) - C36(9) - C37(9) + C38(11) + C39(11) >= 0
 c28: - 117 B0(9) - 1.000000125e+09 B1(9) - 1e+09 B3(10) - C36(9) - C37(9)
   + C38(11) + C39(11) >= -1.999999991e+09
 c29: - 140 B2(9) - 130 B3(10) - C38(11) - C39(11) + C40(9) + C41(9) >= 0
 c30: - 1.00000014e+09 B2(9) - 130 B3(10) - 1e+09 B4(8) - C38(11) - C39(11)
   + C40(9) + C41(9) >= -1.99999999e+09
 c31: - 214 B6(9) - 150 B7(7) - C42(9) - C43(7) + C44(9) + C45(13) >= 0
 c32: - 214 B6(9) - 1.00000015e+09 B7(7) - 1e+09 B8(8) - C42(9) - C43(7)
   + C44(9) + C45(13) >= -1.99999999e+09
 c33: - 55 B8(8) - 66 B9(11) - C44(9) - C45(13) + C46(9) + C47(7) >= 0
 c34: - 1.000000055e+09 B8(8) - 66 B9(11) - 1e+09 B11(6) - C44(9) - C45(13)
   + C46(9) + C47(7) >= -1.999999986e+09
 c35: - 87 B12(8) - 62 B13(10) - C48(8) - C49(10) + C50(10) + C51(12) >= 0
 c36: - 70 B14(9) - 80 B15(11) - C50(10) - C51(12) + C52(9) + C53(9) >= 0
 c37: - 1.00000007e+09 B14(9) - 80 B15(11) - 1e+09 B16(8) - C50(10)
   - C51(12) + C52(9) + C53(9) >= -1.99999999e+09
 c38: - 1e+09 B0(9) - 1e+09 B6(9) - 1e+09 B18(2) + C36(9) - C42(9)
   >= -2.999999777e+09
 c39: - 1e+09 B0(9) - 1e+09 B6(9) + 1e+09 B18(2) - C36(9) + C42(9)
   >= -1.99999987e+09
 c40: - 1e+09 B1(9) - 1e+09 B9(11) - 1e+09 B19(2) + C37(9) - C45(13)
   >= -2.999999923e+09
 c41: - 1e+09 B1(9) - 1e+09 B9(11) + 1e+09 B19(2) - C37(9) + C45(13)
   >= -1.999999866e+09
 c42: - 1e+09 B0(9) - 1e+09 B12(8) - 1e+09 B20(2) + C36(9) - C48(8)
   >= -2.999999902e+09
 c43: - 1e+09 B0(9) - 1e+09 B12(8) + 1e+09 B20(2) - C36(9) + C48(8)
   >= -1.999999871e+09
 c44: - 1e+09 B1(9) - 1e+09 B13(10) - 1e+09 B21(2) + C37(9) - C49(10)
   >= -2.999999923e+09
 c45: - 1e+09 B1(9) - 1e+09 B13(10) + 1e+09 B21(2) - C37(9) + C49(10)
   >= -1.999999865e+09
 c46: - 1e+09 B3(10) - 1e+09 B9(11) - 1e+09 B22(2) + C39(11) - C45(13)
   >= -2.999999921e+09
 c47: - 1e+09 B3(10) - 1e+09 B9(11) + 1e+09 B22(2) - C39(11) + C45(13)
   >= -1.999999857e+09
 c48: - 1e+09 B3(10) - 1e+09 B13(10) - 1e+09 B23(2) + C39(11) - C49(10)
   >= -2.999999928e+09
 c49: - 1e+09 B3(10) - 1e+09 B13(10) + 1e+09 B23(2) - C39(11) + C49(10)
   >= -1.99999986e+09
 c50: - 1e+09 B2(9) - 1e+09 B14(9) - 1e+09 B24(2) + C38(11) - C50(10)
   >= -2.99999992e+09
 c51: - 1e+09 B2(9) - 1e+09 B14(9) + 1e+09 B24(2) - C38(11) + C50(10)
   >= -1.99999985e+09
 c52: - 1e+09 B2(9) - 1e+09 B16(8) - 1e+09 B25(2) + C38(11) - C52(9)
   >= -2.999999799e+09
 c53: - 1e+09 B2(9) - 1e+09 B16(8) + 1e+09 B25(2) - C38(11) + C52(9)
   >= -1.999999851e+09
 c54: - 1e+09 B5(7) - 1e+09 B10(7) - 1e+09 B26(2) + C41(9) - C46(9)
   >= -2.99999991e+09
 c55: - 1e+09 B5(7) - 1e+09 B10(7) + 1e+09 B26(2) - C41(9) + C46(9)
   >= -1.99999983e+09
 c56: - 1e+09 B4(8) - 1e+09 B14(9) - 1e+09 B27(2) + C40(9) - C50(10)
   >= -2.99999992e+09
 c57: - 1e+09 B4(8) - 1e+09 B14(9) + 1e+09 B27(2) - C40(9) + C50(10)
   >= -1.999999837e+09
 c58: - 1e+09 B4(8) - 1e+09 B16(8) - 1e+09 B28(2) + C40(9) - C52(9)
   >= -2.9999998e+09
 c59: - 1e+09 B4(8) - 1e+09 B16(8) + 1e+09 B28(2) - C40(9) + C52(9)
   >= -1.999999838e+09
 c60: - 1e+09 B5(7) - 1e+09 B17(7) - 1e+09 B29(2) + C41(9) - C53(9)
   >= -2.999999891e+09
 c61: - 1e+09 B5(7) - 1e+09 B17(7) + 1e+09 B29(2) - C41(9) + C53(9)
   >= -1.999999828e+09
 c62: - 1e+09 B6(9) - 1e+09 B12(8) - 1e+09 B30(2) + C42(9) - C48(8)
   >= -2.999999901e+09
 c63: - 1e+09 B6(9) - 1e+09 B12(8) + 1e+09 B30(2) - C42(9) + C48(8)
   >= -1.999999772e+09
 c64: - 1e+09 B7(7) - 1e+09 B15(11) - 1e+09 B31(2) + C43(7) - C51(12)
   >= -2.99999991e+09
 c65: - 1e+09 B7(7) - 1e+09 B15(11) + 1e+09 B31(2) - C43(7) + C51(12)
   >= -1.99999984e+09
 c66: - 1e+09 B9(11) - 1e+09 B13(10) - 1e+09 B32(2) + C45(13) - C49(10)
   >= -2.999999925e+09
 c67: - 1e+09 B9(11) - 1e+09 B13(10) + 1e+09 B32(2) - C45(13) + C49(10)
   >= -1.999999922e+09
 c68: - 1e+09 B8(8) - 1e+09 B15(11) - 1e+09 B33(2) + C44(9) - C51(12)
   >= -2.999999908e+09
 c69: - 1e+09 B8(8) - 1e+09 B15(11) + 1e+09 B33(2) - C44(9) + C51(12)
   >= -1.999999936e+09
 c70: - 1e+09 B11(6) - 1e+09 B15(11) - 1e+09 B34(2) + C47(7) - C51(12)
   >= -2.999999909e+09
 c71: - 1e+09 B11(6) - 1e+09 B15(11) + 1e+09 B34(2) - C47(7) + C51(12)
   >= -1.999999923e+09
 c72: - 1e+09 B10(7) - 1e+09 B17(7) - 1e+09 B35(2) + C46(9) - C53(9)
   >= -2.999999886e+09
 c73: - 1e+09 B10(7) - 1e+09 B17(7) + 1e+09 B35(2) - C46(9) + C53(9)
   >= -1.999999912e+09
 c74: C36(9) >= 0
 c75: C37(9) >= 0
 c76: C38(11) >= 0
 c77: C39(11) >= 0
 c78: C40(9) >= 0
 c79: C41(9) >= 0
 c80: C42(9) >= 0
 c81: C43(7) >= 0
 c82: C44(9) >= 0
 c83: C45(13) >= 0
 c84: C46(9) >= 0
 c85: C47(7) >= 0
 c86: C48(8) >= 0
 c87: C49(10) >= 0
 c88: C50(10) >= 0
 c89: C51(12) >= 0
 c90: C52(9) >= 0
 c91: C53(9) >= 0
 c92: - 117 B0(9) - 125 B1(9) - 140 B2(9) - 130 B3(10) - 150 B4(8)
   - 160 B5(7) - 214 B6(9) - 150 B7(7) - 55 B8(8) - 66 B9(11) - 78 B10(7)
   - 65 B11(6) - 87 B12(8) - 62 B13(10) - 70 B14(9) - 80 B15(11)
   - 190 B16(8) - 100 B17(7) - C36(9) - C37(9) - C38(11) - C39(11) - C40(9)
   - C41(9) - C42(9) - C43(7) - C44(9) - C45(13) - C46(9) - C47(7) - C48(8)
   - C49(10) - C50(10) - C51(12) - C52(9) - C53(9) + C54(1) = 0
Bounds
Binaries
 B0(9) B1(9) B2(9) B3(10) B4(8) B5(7) B6(9) B7(7) B8(8) B9(11) B10(7)
 B11(6) B12(8) B13(10) B14(9) B15(11) B16(8) B17(7) B18(2) B19(2) B20(2)
 B21(2) B22(2) B23(2) B24(2) B25(2) B26(2) B27(2) B28(2) B29(2) B30(2)
 B31(2) B32(2) B33(2) B34(2) B35(2)
End
